NAME 
ROWS
 N  OBJ
 L  R0      
 L  R1      
 E  R2      
 E  R3      
 E  R4      
 E  R5      
 E  R6      
 E  R7      
 E  R8      
 E  R9      
 E  R10     
 E  R11     
COLUMNS
    MARKER    'MARKER'                 'INTORG'
    I0(6)     OBJ       125
    I0(6)     R0        42
    I0(6)     R1        -66
    I0(6)     R5        18
    I0(6)     R6        14
    I0(6)     R7        5
    I0(6)     R11       1
    I1(9)     OBJ       -78
    I1(9)     R0        166
    I1(9)     R1        -128
    I1(9)     R2        12
    I1(9)     R3        2
    I1(9)     R4        16
    I1(9)     R5        19
    I1(9)     R6        9
    I1(9)     R7        3
    I1(9)     R11       1
    I2(8)     OBJ       -28
    I2(8)     R0        -197
    I2(8)     R1        -160
    I2(8)     R3        1
    I2(8)     R4        12
    I2(8)     R5        2
    I2(8)     R6        6
    I2(8)     R7        14
    I2(8)     R11       1
    I3(7)     OBJ       -100
    I3(7)     R0        -153
    I3(7)     R1        -176
    I3(7)     R2        3
    I3(7)     R3        10
    I3(7)     R5        11
    I3(7)     R6        8
    I3(7)     R11       1
    I4(7)     OBJ       68
    I4(7)     R0        -40
    I4(7)     R1        186
    I4(7)     R2        5
    I4(7)     R3        9
    I4(7)     R4        7
    I4(7)     R7        3
    I4(7)     R11       1
    I5(8)     OBJ       -59
    I5(8)     R0        -96
    I5(8)     R1        -196
    I5(8)     R2        12
    I5(8)     R3        10
    I5(8)     R4        -1
    I5(8)     R6        19
    I5(8)     R7        -1
    I5(8)     R11       1
    MARKER    'MARKER'                 'INTEND'
    C6(8)     OBJ       2
    C6(8)     R0        3
    C6(8)     R1        8
    C6(8)     R2        1
    C6(8)     R4        15
    C6(8)     R5        6
    C6(8)     R7        8
    C6(8)     R8        2
    C6(8)     R10       1
    C7(9)     OBJ       6
    C7(9)     R0        -8
    C7(9)     R1        -6
    C7(9)     R2        17
    C7(9)     R3        5
    C7(9)     R5        1
    C7(9)     R6        -1
    C7(9)     R7        16
    C7(9)     R8        14
    C7(9)     R10       18
    C8(9)     OBJ       1
    C8(9)     R0        -9
    C8(9)     R1        -7
    C8(9)     R3        6
    C8(9)     R4        17
    C8(9)     R5        9
    C8(9)     R6        6
    C8(9)     R7        4
    C8(9)     R8        7
    C8(9)     R10       7
    C9(9)     OBJ       -3
    C9(9)     R0        7
    C9(9)     R1        7
    C9(9)     R2        16
    C9(9)     R3        9
    C9(9)     R5        17
    C9(9)     R6        12
    C9(9)     R7        2
    C9(9)     R8        17
    C9(9)     R10       -1
    C10(1)    R2        1
    C11(1)    R3        1
    C12(1)    R4        1
    C13(1)    R5        1
    C14(1)    R6        1
    C15(1)    R7        1
    C16(1)    R8        1
    C17(1)    R9        1
    C18(1)    R10       1
    C19(1)    R11       1
RHS
    RHS1      R0        2.3705882352941195e+01
    RHS1      R1        -2.9329411764705878e+02
    RHS1      R2        80
    RHS1      R3        94
    RHS1      R4        76
    RHS1      R5        56
    RHS1      R6        77
    RHS1      R7        51
    RHS1      R8        65
    RHS1      R9        53
    RHS1      R10       59
    RHS1      R11       2
BOUNDS
 UP BND1      I0(6)     1
 UP BND1      I1(9)     1
 UP BND1      I2(8)     1
 UP BND1      I3(7)     1
 UP BND1      I4(7)     1
 UP BND1      I5(8)     1
ENDATA
